\* ODT *\
Minimize
OBJ: X0 + X1 + X10 + X11 + X12 + X13 + X14 + X15 + X2 + X3 + X4 + X5 + X6 + X7
 + X8 + X9
Subject To
Cover_0: X10 + X2 + X7 >= 1
Cover_1: X10 + X2 + X7 >= 1
Cover_10: X10 + X12 + X13 + X2 + X7 + X8 >= 1
Cover_11: X10 + X12 + X13 + X2 + X3 + X7 + X8 >= 1
Cover_12: X10 + X2 + X7 >= 1
Cover_13: X10 + X2 + X7 >= 1
Cover_14: X11 + X12 + X3 >= 1
Cover_15: X12 + X3 >= 1
Cover_16: X10 + X12 + X2 + X7 >= 1
Cover_17: X10 + X12 + X13 + X2 + X7 + X8 >= 1
Cover_18: X10 + X2 + X7 >= 1
Cover_19: X10 + X2 + X7 >= 1
Cover_2: X11 + X12 + X3 >= 1
Cover_20: X10 + X12 + X13 + X2 + X7 + X8 >= 1
Cover_21: X10 + X12 + X13 + X2 + X7 + X8 >= 1
Cover_22: X10 + X12 + X13 + X2 + X7 + X8 >= 1
Cover_23: X10 + X12 + X13 + X2 + X3 + X7 + X8 >= 1
Cover_24: X11 + X12 + X3 >= 1
Cover_25: X11 + X12 + X3 >= 1
Cover_26: X11 + X13 + X3 + X8 >= 1
Cover_27: X11 + X13 + X3 + X8 >= 1
Cover_28: X11 + X13 + X3 + X8 >= 1
Cover_29: X11 + X13 + X8 >= 1
Cover_3: X12 + X3 >= 1
Cover_30: X12 + X3 >= 1
Cover_31: X12 + X3 >= 1
Cover_32: X13 + X3 + X8 >= 1
Cover_33: X13 + X3 + X8 >= 1
Cover_34: X13 + X3 + X8 >= 1
Cover_35: X13 + X8 >= 1
Cover_36: X10 + X12 + X2 + X7 >= 1
Cover_37: X10 + X12 + X2 + X7 >= 1
Cover_38: X10 + X13 + X2 + X7 + X8 >= 1
Cover_39: X10 + X13 + X2 + X7 + X8 >= 1
Cover_4: X10 + X12 + X2 + X7 >= 1
Cover_40: X10 + X13 + X2 + X7 + X8 >= 1
Cover_41: X10 + X13 + X2 + X3 + X7 + X8 >= 1
Cover_42: X10 + X12 + X13 + X2 + X7 + X8 >= 1
Cover_43: X10 + X12 + X13 + X2 + X7 + X8 >= 1
Cover_44: X11 + X13 + X3 + X8 >= 1
Cover_45: X13 + X3 + X8 >= 1
Cover_46: X10 + X13 + X2 + X7 + X8 >= 1
Cover_47: X10 + X2 + X7 >= 1
Cover_48: X10 + X12 + X13 + X2 + X7 + X8 >= 1
Cover_49: X10 + X12 + X13 + X2 + X7 + X8 >= 1
Cover_5: X10 + X12 + X13 + X2 + X7 + X8 >= 1
Cover_50: X11 + X13 + X3 + X8 >= 1
Cover_51: X13 + X3 + X8 >= 1
Cover_52: X10 + X13 + X2 + X7 + X8 >= 1
Cover_53: X10 + X2 + X7 >= 1
Cover_54: X10 + X12 + X13 + X2 + X7 + X8 >= 1
Cover_55: X10 + X12 + X13 + X2 + X7 + X8 >= 1
Cover_56: X11 + X13 + X3 + X8 >= 1
Cover_57: X13 + X3 + X8 >= 1
Cover_58: X10 + X13 + X2 + X7 + X8 >= 1
Cover_59: X10 + X2 + X7 >= 1
Cover_6: X10 + X2 + X7 >= 1
Cover_60: X10 + X12 + X13 + X2 + X7 + X8 >= 1
Cover_61: X10 + X12 + X13 + X2 + X7 + X8 >= 1
Cover_62: X10 + X2 + X7 >= 1
Cover_63: X10 + X2 + X7 >= 1
Cover_64: X10 + X2 + X7 >= 1
Cover_65: X10 + X2 + X3 + X7 >= 1
Cover_66: X10 + X12 + X13 + X2 + X3 + X7 + X8 >= 1
Cover_67: X10 + X12 + X13 + X2 + X3 + X7 + X8 >= 1
Cover_68: X11 + X13 + X8 >= 1
Cover_69: X13 + X8 >= 1
Cover_7: X10 + X2 + X7 >= 1
Cover_70: X10 + X13 + X2 + X3 + X7 + X8 >= 1
Cover_71: X10 + X2 + X3 + X7 >= 1
Cover_8: X10 + X12 + X13 + X2 + X7 + X8 >= 1
Cover_9: X10 + X12 + X13 + X2 + X7 + X8 >= 1
Binaries
X0
X1
X10
X11
X12
X13
X14
X15
X2
X3
X4
X5
X6
X7
X8
X9
End
